Optimal - objective value 33.00000000
     11 x_1_17                  1                       0
     26 x_2_0                   1                       0
     55 x_3_9                   1                       0
     76 x_4_7                   1                       0
     99 x_5_3                   1                       0
    136 x_6_19                  1                       0
    167 x_7_28                  1                       0
    177 x_8_13                  1                       0
    204 x_9_25                  1                       0
    230 x_10_33                 1                      33
